1659362400
1659369600
1659448800
1659456000
1659535200
1659542400
1659621600
1659628800
1659708000
1659715200
1659967200
1659974400
1660053600
1660060800
1660140000
1660143000
1660222200
1660233600
1660312800
1660320000
1660572000
1660579200
1660658400
1660665600
1660744800
1660744800
1660831200
1660838400
1660917600
1660924800
1661176800
1661176800
1661263200
1661270400
1661349600
1661356800
1661436000
1661443200
1661522400
1661529600
1661781600
1661788800
1661868000
1661875200
1661954400
1661961600
